100
100
3000 3000 3000 3000 3000 3000 3000 3000 3000 3000 3000 3000 3000 3000 3000 3000 3000 3000 3000 3000 3000 3000 3000 3000 3000 3000 3000 3000 3000 3000 3000 3000 3000 3000 3000 3000 3000 3000 3000 3000 3000 3000 3000 3000 3000 3000 3000 3000 3000 3000 3000 3000 3000 3000 3000 3000 3000 3000 3000 3000 3000 3000 3000 3000 3000 3000 3000 3000 3000 3000 3000 3000 3000 3000 3000 3000 3000 3000 3000 3000 3000 3000 3000 3000 3000 3000 3000 3000 3000 3000 3000 3000 3000 3000 3000 3000 3000 3000 3000 3000
0 2 1
0 3 3
0 5 4
0 34 0
0 36 2
0 38 1
0 49 4
0 52 1
0 54 3
0 58 1
1 4 3
1 15 2
1 19 4
1 28 3
1 30 3
1 46 3
1 53 4
1 71 4
1 72 1
1 77 2
2 9 3
2 15 3
2 28 4
2 44 3
2 58 3
2 69 2
2 80 4
2 83 3
2 85 0
2 87 1
3 4 0
3 9 0
3 11 2
3 26 1
3 39 3
3 40 3
3 46 3
3 47 1
3 48 2
3 65 0
4 2 4
4 7 1
4 11 0
4 15 1
4 17 2
4 66 4
4 71 0
4 78 2
4 83 0
4 86 3
5 3 4
5 8 2
5 10 0
5 34 2
5 39 2
5 44 4
5 56 2
5 57 1
5 67 1
5 76 4
6 3 4
6 26 2
6 33 4
6 34 1
6 47 0
6 56 2
6 57 4
6 82 3
6 83 3
6 92 0
7 1 3
7 5 1
7 12 1
7 17 4
7 20 3
7 30 2
7 37 4
7 51 0
7 52 4
7 56 2
8 13 2
8 38 4
8 53 4
8 63 4
8 64 1
8 73 3
8 80 3
8 94 3
8 95 0
8 98 3
9 11 4
9 14 3
9 23 3
9 25 0
9 29 1
9 31 4
9 69 2
9 70 3
9 72 0
9 73 2
10 24 0
10 25 0
10 28 2
10 44 0
10 48 4
10 75 0
10 77 0
10 93 2
10 97 2
10 99 1
11 8 3
11 20 4
11 45 3
11 64 1
11 74 0
11 91 4
11 92 3
11 93 1
11 95 2
11 96 0
12 6 4
12 14 3
12 15 1
12 30 2
12 50 4
12 51 3
12 52 2
12 55 2
12 60 3
12 82 4
13 4 3
13 20 3
13 39 0
13 40 1
13 43 3
13 51 2
13 81 1
13 87 2
13 90 0
13 94 0
14 7 4
14 12 0
14 34 4
14 37 0
14 43 0
14 46 3
14 50 3
14 75 3
14 83 4
14 96 3
15 3 0
15 8 4
15 25 2
15 32 4
15 47 4
15 66 3
15 69 2
15 72 2
15 73 0
15 78 4
16 14 2
16 25 4
16 37 1
16 47 3
16 56 2
16 59 0
16 64 3
16 66 0
16 71 3
16 76 4
17 4 3
17 21 0
17 26 4
17 31 0
17 43 0
17 66 2
17 72 3
17 77 1
17 80 1
17 81 3
18 1 0
18 10 4
18 18 3
18 20 2
18 21 0
18 30 0
18 51 0
18 53 0
18 59 3
18 62 3
19 2 0
19 15 0
19 34 2
19 46 2
19 51 4
19 57 0
19 68 2
19 73 3
19 87 3
19 91 3
20 4 4
20 11 1
20 15 0
20 38 0
20 39 4
20 61 1
20 76 0
20 86 1
20 89 3
20 94 4
21 0 2
21 3 3
21 5 3
21 19 4
21 32 0
21 50 4
21 60 1
21 69 2
21 72 2
21 79 4
22 10 0
22 36 1
22 39 3
22 61 3
22 68 0
22 74 2
22 78 2
22 91 3
22 95 3
22 96 4
23 7 3
23 15 1
23 42 4
23 54 1
23 67 2
23 84 3
23 86 0
23 87 2
23 89 2
23 92 2
24 4 2
24 6 1
24 29 0
24 44 2
24 45 2
24 48 4
24 66 1
24 68 1
24 84 1
24 87 0
25 5 4
25 13 2
25 33 1
25 39 1
25 45 2
25 50 2
25 60 3
25 80 4
25 81 4
25 88 3
26 24 3
26 35 0
26 55 1
26 61 3
26 70 4
26 75 0
26 86 0
26 90 2
26 91 0
26 93 3
27 12 2
27 21 4
27 24 4
27 41 4
27 48 4
27 49 0
27 61 1
27 64 4
27 65 0
27 66 0
28 0 1
28 13 1
28 22 0
28 29 4
28 33 1
28 42 1
28 55 2
28 67 1
28 77 4
28 80 2
29 44 2
29 79 2
29 81 0
29 83 0
29 88 1
29 91 3
29 93 3
29 97 3
29 98 4
29 99 1
30 12 4
30 17 1
30 20 2
30 25 3
30 31 4
30 32 1
30 38 4
30 62 3
30 73 3
30 77 4
31 2 4
31 7 3
31 22 4
31 28 1
31 40 2
31 52 0
31 61 0
31 64 2
31 70 2
31 71 2
32 6 3
32 17 2
32 19 0
32 33 0
32 41 0
32 63 2
32 82 4
32 90 2
32 92 1
32 93 0
33 7 2
33 23 2
33 25 2
33 26 2
33 29 3
33 33 0
33 38 2
33 60 1
33 66 3
33 70 1
34 18 0
34 24 2
34 26 4
34 42 0
34 46 3
34 78 4
34 83 1
34 87 3
34 89 3
34 94 1
35 2 1
35 5 2
35 11 3
35 19 4
35 23 2
35 41 2
35 50 3
35 53 2
35 56 1
35 65 4
36 0 0
36 16 1
36 37 0
36 47 4
36 48 1
36 55 1
36 57 4
36 59 0
36 60 0
36 68 4
37 7 0
37 15 4
37 35 4
37 55 3
37 68 4
37 70 0
37 74 0
37 82 4
37 83 2
37 90 4
38 6 2
38 12 2
38 15 0
38 49 3
38 54 0
38 67 1
38 71 0
38 83 3
38 88 0
38 92 1
39 17 0
39 34 0
39 35 3
39 40 2
39 45 4
39 49 2
39 61 3
39 73 3
39 74 4
39 79 4
40 4 4
40 14 2
40 21 4
40 29 4
40 31 0
40 35 3
40 36 1
40 37 0
40 38 0
40 71 1
41 0 3
41 2 4
41 3 0
41 16 2
41 17 0
41 21 1
41 42 0
41 50 2
41 52 3
41 70 3
42 13 2
42 14 1
42 22 1
42 30 3
42 34 2
42 37 3
42 39 4
42 46 3
42 65 3
42 75 1
43 10 3
43 16 4
43 25 1
43 27 1
43 29 2
43 32 1
43 43 0
43 52 4
43 57 3
43 69 1
44 8 0
44 17 2
44 24 2
44 30 3
44 43 3
44 54 2
44 56 3
44 72 2
44 81 3
44 84 0
45 5 4
45 13 0
45 23 2
45 29 2
45 36 1
45 37 0
45 43 0
45 47 2
45 49 0
45 67 3
46 10 1
46 14 4
46 19 4
46 24 3
46 36 1
46 45 4
46 49 2
46 58 3
46 59 1
46 87 3
47 28 0
47 49 1
47 62 2
47 65 0
47 85 2
47 90 4
47 91 3
47 93 3
47 97 4
47 98 3
48 6 0
48 19 4
48 29 3
48 32 2
48 34 4
48 35 0
48 36 3
48 41 3
48 51 0
48 75 3
49 6 1
49 23 4
49 27 4
49 38 3
49 55 0
49 64 2
49 68 0
49 79 4
49 84 0
49 85 4
50 7 4
50 26 4
50 27 3
50 35 1
50 52 1
50 54 1
50 66 0
50 78 3
50 79 3
50 81 4
51 5 0
51 39 4
51 47 2
51 48 3
51 57 4
51 68 3
51 76 3
51 86 1
51 91 2
51 93 2
52 16 4
52 26 0
52 30 2
52 38 0
52 45 2
52 76 3
52 78 0
52 79 1
52 81 0
52 85 0
53 12 2
53 49 2
53 62 4
53 74 4
53 78 1
53 90 2
53 94 4
53 96 3
53 98 2
53 99 3
54 1 2
54 13 0
54 18 3
54 25 4
54 63 1
54 70 2
54 80 1
54 82 3
54 86 1
54 89 4
55 0 0
55 6 4
55 58 4
55 65 4
55 66 3
55 67 4
55 68 3
55 73 1
55 74 3
55 76 4
56 1 4
56 14 1
56 23 3
56 32 1
56 51 1
56 54 1
56 58 0
56 59 0
56 60 1
56 63 4
57 13 0
57 16 3
57 21 4
57 22 1
57 31 0
57 42 1
57 46 4
57 59 4
57 60 2
57 64 1
58 1 2
58 23 4
58 31 2
58 37 1
58 47 3
58 51 3
58 59 1
58 63 4
58 69 2
58 70 4
59 17 1
59 18 2
59 29 1
59 42 1
59 48 4
59 49 1
59 55 3
59 58 4
59 61 4
59 71 4
60 11 2
60 26 2
60 34 0
60 40 0
60 44 2
60 79 3
60 84 0
60 86 2
60 89 0
60 92 3
61 2 4
61 3 2
61 20 4
61 43 0
61 53 4
61 60 0
61 61 0
61 71 2
61 79 1
61 84 2
62 0 2
62 9 3
62 13 0
62 20 2
62 41 3
62 54 2
62 57 0
62 74 3
62 88 1
62 95 0
63 6 3
63 10 0
63 18 3
63 22 2
63 27 3
63 41 1
63 47 3
63 55 1
63 63 3
63 68 3
64 8 3
64 9 3
64 18 3
64 23 0
64 43 3
64 53 3
64 61 1
64 77 0
64 84 0
64 85 0
65 0 1
65 1 1
65 9 0
65 19 2
65 23 0
65 27 1
65 44 4
65 50 1
65 57 3
65 59 3
66 1 2
66 18 1
66 45 4
66 56 1
66 60 3
66 88 4
66 91 1
66 92 0
66 94 3
66 97 1
67 2 0
67 9 3
67 11 2
67 14 3
67 24 3
67 30 0
67 31 3
67 63 0
67 69 0
67 72 4
68 20 4
68 21 0
68 52 3
68 57 4
68 58 1
68 76 2
68 83 1
68 87 0
68 93 1
68 94 4
69 33 1
69 35 0
69 59 0
69 76 2
69 84 1
69 86 4
69 87 0
69 90 3
69 92 4
69 96 1
70 13 1
70 22 2
70 27 0
70 36 3
70 67 3
70 72 2
70 75 3
70 82 2
70 94 1
70 95 1
71 2 0
71 21 4
71 30 2
71 33 1
71 36 2
71 68 0
71 85 3
71 90 3
71 91 0
71 96 0
72 0 0
72 1 1
72 12 1
72 16 1
72 23 3
72 25 3
72 31 3
72 53 1
72 63 2
72 65 3
73 7 3
73 24 3
73 27 1
73 31 0
73 39 2
73 40 1
73 46 4
73 55 3
73 64 2
73 79 1
74 1 0
74 39 4
74 85 2
74 92 3
74 94 4
74 95 2
74 96 3
74 97 4
74 98 1
74 99 2
75 6 3
75 19 1
75 34 3
75 75 2
75 76 1
75 77 0
75 80 2
75 89 2
75 95 0
75 97 0
76 10 3
76 18 0
76 20 3
76 40 3
76 45 1
76 46 1
76 54 3
76 56 1
76 98 4
76 99 3
77 8 2
77 12 0
77 16 2
77 31 4
77 33 4
77 58 3
77 64 0
77 70 1
77 72 3
77 76 1
78 37 1
78 41 2
78 62 1
78 65 3
78 93 1
78 95 0
78 96 3
78 97 1
78 98 4
78 99 2
79 10 2
79 11 2
79 28 0
79 30 0
79 42 3
79 50 0
79 73 4
79 90 1
79 93 0
79 99 1
80 0 2
80 4 2
80 8 2
80 28 2
80 32 2
80 35 0
80 41 2
80 69 1
80 73 3
80 75 3
81 47 4
81 56 0
81 60 4
81 75 1
81 82 2
81 83 0
81 86 2
81 87 0
81 92 0
81 95 2
82 17 1
82 19 1
82 22 1
82 27 2
82 32 1
82 38 2
82 65 1
82 74 2
82 77 3
82 78 3
83 6 4
83 9 0
83 10 4
83 12 0
83 48 1
83 50 4
83 62 1
83 63 3
83 71 2
83 72 1
84 5 4
84 7 2
84 15 1
84 18 0
84 22 4
84 35 3
84 42 1
84 45 1
84 53 0
84 63 3
85 16 2
85 38 1
85 44 3
85 52 2
85 54 0
85 71 3
85 88 2
85 89 4
85 96 4
85 97 4
86 12 2
86 54 2
86 62 4
86 82 3
86 84 1
86 89 3
86 91 4
86 97 0
86 98 1
86 99 1
87 17 0
87 22 0
87 24 0
87 36 4
87 43 1
87 46 4
87 62 1
87 65 3
87 67 3
87 69 4
88 8 3
88 10 0
88 16 1
88 19 3
88 27 4
88 40 4
88 69 3
88 77 0
88 79 3
88 82 1
89 9 3
89 24 3
89 37 3
89 85 3
89 88 3
89 89 0
89 94 1
89 97 1
89 98 1
89 99 3
90 3 1
90 4 1
90 26 2
90 28 0
90 40 3
90 42 3
90 43 2
90 44 3
90 50 1
90 59 3
91 1 2
91 7 2
91 22 1
91 25 2
91 28 2
91 51 1
91 53 0
91 61 0
91 64 1
91 73 3
92 0 3
92 2 2
92 9 3
92 11 3
92 21 2
92 56 0
92 80 3
92 81 0
92 85 4
92 86 4
93 11 0
93 20 2
93 41 2
93 53 2
93 58 3
93 70 3
93 74 4
93 75 1
93 85 2
93 88 3
94 13 2
94 18 3
94 42 0
94 44 4
94 62 4
94 80 1
94 89 2
94 90 4
94 95 1
94 98 1
95 3 1
95 8 3
95 9 1
95 40 3
95 41 2
95 78 2
95 81 0
95 88 0
95 96 0
95 99 3
96 4 4
96 16 2
96 33 3
96 52 4
96 55 0
96 62 2
96 67 0
96 77 2
96 78 2
96 84 2
97 14 1
97 21 4
97 27 0
97 28 2
97 32 3
97 35 2
97 36 4
97 48 1
97 49 1
97 51 4
98 3 2
98 5 2
98 8 4
98 14 2
98 26 4
98 29 0
98 32 0
98 45 3
98 57 0
98 66 3
99 5 2
99 33 0
99 48 3
99 58 1
99 67 4
99 74 1
99 80 1
99 81 1
99 82 3
99 88 0
